\ENCODING=ISO-8859-1
\Problem name: Configuration1

Maximize
 obj1: 7 X(1)(1) + 9 X(1)(2) + 2 X(1)(3) + 6 X(1)(4) + 7 X(1)(5) + 6 X(2)(1)
       + 5 X(2)(3) + 6 X(2)(4) + 6 X(2)(5) + 9 X(3)(1) + 4 X(3)(2) + 7 X(3)(3)
       + 10 X(3)(4) + 3 X(3)(5) + 2 X(4)(1) + 5 X(4)(2) + 4 X(4)(3) + 2 X(4)(4)
       + X(4)(5) + 6 X(5)(2) + 2 X(5)(3) + 4 X(5)(4) + 6 X(5)(5)
Subject To
 c1:  X(1)(1) + X(1)(2) + X(1)(3) + X(1)(4) + X(1)(5)  = 1
 c2:  X(2)(1) + X(2)(2) + X(2)(3) + X(2)(4) + X(2)(5)  = 1
 c3:  X(3)(1) + X(3)(2) + X(3)(3) + X(3)(4) + X(3)(5)  = 1
 c4:  X(4)(1) + X(4)(2) + X(4)(3) + X(4)(4) + X(4)(5)  = 1
 c5:  X(5)(1) + X(5)(2) + X(5)(3) + X(5)(4) + X(5)(5)  = 1
 c6:  X(1)(1) + X(2)(1) + X(3)(1) + X(4)(1) + X(5)(1)  = 1
 c7:  X(1)(2) + X(2)(2) + X(3)(2) + X(4)(2) + X(5)(2)  = 1
 c8:  X(1)(3) + X(2)(3) + X(3)(3) + X(4)(3) + X(5)(3)  = 1
 c9:  X(1)(4) + X(2)(4) + X(3)(4) + X(4)(4) + X(5)(4)  = 1
 c10: X(1)(5) + X(2)(5) + X(3)(5) + X(4)(5) + X(5)(5)  = 1
Bounds
 0 <= X(1)(1) <= 1
 0 <= X(1)(2) <= 1
 0 <= X(1)(3) <= 1
 0 <= X(1)(4) <= 1
 0 <= X(1)(5) <= 1
 0 <= X(2)(1) <= 1
 0 <= X(2)(2) <= 1
 0 <= X(2)(3) <= 1
 0 <= X(2)(4) <= 1
 0 <= X(2)(5) <= 1
 0 <= X(3)(1) <= 1
 0 <= X(3)(2) <= 1
 0 <= X(3)(3) <= 1
 0 <= X(3)(4) <= 1
 0 <= X(3)(5) <= 1
 0 <= X(4)(1) <= 1
 0 <= X(4)(2) <= 1
 0 <= X(4)(3) <= 1
 0 <= X(4)(4) <= 1
 0 <= X(4)(5) <= 1
 0 <= X(5)(1) <= 1
 0 <= X(5)(2) <= 1
 0 <= X(5)(3) <= 1
 0 <= X(5)(4) <= 1
 0 <= X(5)(5) <= 1
Binaries
 X(1)(1)  X(1)(2)  X(1)(3)  X(1)(4)  X(1)(5)  X(2)(1)  X(2)(2)  X(2)(3) 
 X(2)(4)  X(2)(5)  X(3)(1)  X(3)(2)  X(3)(3)  X(3)(4)  X(3)(5)  X(4)(1) 
 X(4)(2)  X(4)(3)  X(4)(4)  X(4)(5)  X(5)(1)  X(5)(2)  X(5)(3)  X(5)(4) 
 X(5)(5) 
End
